p edge 105 1119 84
e 1 5
e 1 25
e 1 26
e 1 27
e 1 37
e 1 40
e 1 43
e 1 44
e 1 55
e 1 56
e 1 61
e 1 63
e 1 76
e 1 86
e 1 92
e 2 3
e 2 4
e 2 6
e 2 22
e 2 23
e 2 29
e 2 30
e 2 32
e 2 42
e 2 53
e 2 57
e 2 74
e 2 85
e 2 95
e 2 97
e 3 9
e 3 20
e 3 25
e 3 30
e 3 32
e 3 38
e 3 40
e 3 50
e 3 51
e 3 52
e 3 55
e 3 57
e 3 63
e 3 65
e 3 66
e 3 74
e 3 82
e 3 84
e 3 88
e 3 93
e 3 94
e 3 95
e 3 99
e 3 101
e 4 7
e 4 17
e 4 18
e 4 19
e 4 28
e 4 31
e 4 37
e 4 45
e 4 72
e 4 75
e 4 76
e 4 85
e 4 91
e 4 97
e 4 100
e 4 103
e 5 14
e 5 15
e 5 17
e 5 20
e 5 22
e 5 76
e 5 81
e 5 86
e 5 91
e 6 9
e 6 10
e 6 20
e 6 21
e 6 25
e 6 34
e 6 36
e 6 38
e 6 50
e 6 57
e 6 64
e 6 67
e 6 69
e 6 78
e 6 95
e 6 98
e 7 11
e 7 13
e 7 23
e 7 25
e 7 30
e 7 34
e 7 37
e 7 48
e 7 49
e 7 50
e 7 51
e 7 52
e 7 58
e 7 59
e 7 63
e 7 64
e 7 68
e 7 78
e 7 81
e 7 84
e 7 85
e 7 98
e 7 103
e 8 11
e 8 29
e 8 43
e 8 45
e 8 47
e 8 51
e 8 53
e 8 55
e 8 59
e 8 62
e 8 66
e 8 68
e 8 72
e 8 75
e 8 76
e 8 80
e 8 83
e 8 90
e 8 92
e 8 93
e 8 103
e 9 14
e 9 17
e 9 23
e 9 28
e 9 30
e 9 31
e 9 42
e 9 44
e 9 46
e 9 57
e 9 58
e 9 60
e 9 62
e 9 64
e 9 65
e 9 67
e 9 71
e 9 72
e 9 77
e 9 80
e 9 85
e 9 87
e 9 88
e 9 94
e 9 96
e 9 98
e 10 11
e 10 14
e 10 15
e 10 19
e 10 29
e 10 30
e 10 32
e 10 37
e 10 46
e 10 59
e 10 60
e 10 63
e 10 67
e 10 75
e 10 76
e 10 79
e 10 84
e 10 86
e 10 91
e 10 99
e 10 101
e 10 104
e 10 105
e 11 13
e 11 15
e 11 16
e 11 22
e 11 40
e 11 43
e 11 50
e 11 58
e 11 59
e 11 61
e 11 70
e 11 72
e 11 76
e 11 93
e 11 95
e 11 99
e 11 105
e 12 15
e 12 22
e 12 24
e 12 32
e 12 33
e 12 38
e 12 46
e 12 55
e 12 57
e 12 58
e 12 61
e 12 63
e 12 67
e 12 75
e 12 82
e 12 87
e 12 88
e 12 96
e 12 99
e 13 35
e 13 41
e 13 47
e 13 59
e 13 61
e 13 63
e 13 66
e 13 67
e 13 82
e 13 86
e 13 88
e 13 92
e 14 22
e 14 29
e 14 34
e 14 35
e 14 37
e 14 39
e 14 42
e 14 43
e 14 44
e 14 46
e 14 49
e 14 50
e 14 52
e 14 53
e 14 54
e 14 62
e 14 67
e 14 68
e 14 70
e 14 79
e 14 85
e 14 89
e 14 90
e 14 92
e 14 94
e 15 27
e 15 34
e 15 35
e 15 37
e 15 44
e 15 53
e 15 57
e 15 63
e 15 75
e 15 78
e 15 85
e 15 86
e 15 90
e 15 91
e 15 92
e 15 104
e 16 22
e 16 24
e 16 32
e 16 35
e 16 36
e 16 37
e 16 38
e 16 39
e 16 47
e 16 56
e 16 59
e 16 62
e 16 71
e 16 86
e 16 89
e 16 97
e 16 105
e 17 18
e 17 25
e 17 26
e 17 27
e 17 32
e 17 38
e 17 40
e 17 43
e 17 44
e 17 45
e 17 51
e 17 55
e 17 57
e 17 68
e 17 73
e 17 75
e 17 76
e 17 81
e 17 89
e 17 92
e 17 94
e 17 99
e 17 105
e 18 32
e 18 36
e 18 37
e 18 49
e 18 54
e 18 65
e 18 68
e 18 72
e 18 73
e 18 84
e 18 89
e 18 95
e 18 104
e 19 24
e 19 25
e 19 30
e 19 31
e 19 34
e 19 35
e 19 52
e 19 53
e 19 55
e 19 56
e 19 58
e 19 59
e 19 66
e 19 82
e 19 85
e 19 88
e 19 94
e 20 30
e 20 31
e 20 34
e 20 35
e 20 36
e 20 39
e 20 40
e 20 42
e 20 43
e 20 50
e 20 53
e 20 56
e 20 60
e 20 66
e 20 69
e 20 73
e 20 74
e 20 80
e 20 88
e 20 101
e 20 104
e 21 26
e 21 32
e 21 36
e 21 38
e 21 46
e 21 52
e 21 57
e 21 64
e 21 68
e 21 69
e 21 72
e 21 73
e 21 76
e 21 86
e 21 92
e 21 98
e 21 99
e 21 101
e 22 29
e 22 30
e 22 31
e 22 35
e 22 44
e 22 53
e 22 54
e 22 57
e 22 60
e 22 74
e 22 104
e 22 105
e 23 25
e 23 35
e 23 42
e 23 53
e 23 61
e 23 65
e 23 69
e 23 73
e 23 81
e 23 89
e 23 90
e 23 95
e 23 96
e 23 104
e 24 35
e 24 37
e 24 39
e 24 44
e 24 50
e 24 64
e 24 66
e 24 71
e 24 76
e 24 78
e 24 81
e 24 90
e 25 26
e 25 31
e 25 33
e 25 34
e 25 37
e 25 46
e 25 50
e 25 51
e 25 53
e 25 58
e 25 66
e 25 81
e 25 85
e 25 87
e 25 95
e 26 28
e 26 32
e 26 33
e 26 35
e 26 38
e 26 41
e 26 47
e 26 57
e 26 63
e 26 65
e 26 71
e 26 72
e 26 73
e 26 78
e 26 80
e 26 81
e 26 87
e 26 98
e 26 99
e 26 101
e 27 33
e 27 34
e 27 36
e 27 37
e 27 38
e 27 41
e 27 42
e 27 45
e 27 48
e 27 49
e 27 59
e 27 63
e 27 72
e 27 76
e 27 80
e 27 84
e 27 93
e 27 96
e 27 97
e 27 105
e 28 34
e 28 35
e 28 37
e 28 48
e 28 71
e 28 79
e 28 81
e 28 90
e 28 100
e 28 101
e 29 30
e 29 34
e 29 38
e 29 39
e 29 41
e 29 55
e 29 57
e 29 66
e 29 67
e 29 72
e 29 76
e 29 77
e 29 79
e 29 81
e 29 94
e 30 36
e 30 42
e 30 44
e 30 53
e 30 62
e 30 65
e 30 68
e 30 69
e 30 72
e 30 73
e 30 91
e 30 93
e 30 97
e 31 35
e 31 39
e 31 43
e 31 44
e 31 46
e 31 55
e 31 75
e 31 82
e 31 85
e 31 86
e 31 90
e 31 92
e 31 93
e 31 96
e 31 102
e 31 105
e 32 33
e 32 34
e 32 36
e 32 38
e 32 41
e 32 51
e 32 53
e 32 57
e 32 59
e 32 62
e 32 64
e 32 67
e 32 72
e 32 75
e 32 77
e 32 80
e 32 91
e 32 94
e 32 99
e 32 103
e 32 104
e 33 36
e 33 41
e 33 46
e 33 48
e 33 49
e 33 51
e 33 56
e 33 58
e 33 61
e 33 63
e 33 64
e 33 77
e 33 87
e 33 89
e 33 94
e 33 102
e 33 104
e 34 36
e 34 37
e 34 40
e 34 41
e 34 43
e 34 70
e 34 76
e 34 83
e 34 89
e 34 99
e 34 104
e 34 105
e 35 39
e 35 40
e 35 58
e 35 64
e 35 65
e 35 66
e 35 74
e 35 78
e 35 83
e 35 84
e 35 91
e 35 94
e 35 95
e 35 98
e 35 101
e 35 104
e 36 40
e 36 53
e 36 58
e 36 66
e 36 71
e 36 72
e 36 87
e 36 90
e 36 94
e 36 100
e 37 50
e 37 54
e 37 61
e 37 64
e 37 66
e 37 79
e 37 82
e 37 85
e 37 92
e 37 94
e 37 97
e 37 100
e 38 39
e 38 43
e 38 48
e 38 49
e 38 50
e 38 52
e 38 59
e 38 60
e 38 67
e 38 90
e 38 92
e 38 93
e 38 94
e 38 98
e 38 100
e 38 101
e 39 41
e 39 42
e 39 50
e 39 53
e 39 66
e 39 75
e 39 77
e 39 81
e 39 82
e 39 84
e 39 92
e 39 97
e 39 99
e 39 100
e 39 103
e 39 104
e 40 43
e 40 50
e 40 51
e 40 54
e 40 56
e 40 57
e 40 64
e 40 65
e 40 72
e 40 76
e 40 88
e 40 89
e 40 96
e 41 46
e 41 55
e 41 56
e 41 62
e 41 67
e 41 69
e 41 70
e 41 72
e 41 77
e 41 81
e 41 83
e 41 89
e 41 90
e 41 95
e 41 96
e 41 103
e 42 48
e 42 52
e 42 53
e 42 55
e 42 56
e 42 58
e 42 63
e 42 79
e 42 81
e 42 91
e 42 92
e 42 93
e 42 98
e 42 101
e 42 103
e 42 104
e 43 50
e 43 62
e 43 72
e 43 79
e 43 80
e 43 84
e 43 86
e 43 88
e 43 92
e 43 96
e 43 100
e 43 104
e 43 105
e 44 74
e 44 91
e 44 97
e 44 105
e 45 47
e 45 59
e 45 65
e 45 68
e 45 69
e 45 73
e 45 74
e 45 79
e 45 80
e 45 84
e 45 86
e 45 88
e 45 99
e 45 101
e 46 47
e 46 52
e 46 55
e 46 57
e 46 67
e 46 70
e 46 76
e 46 83
e 46 97
e 47 71
e 47 74
e 47 75
e 47 79
e 47 85
e 47 89
e 47 94
e 47 97
e 48 54
e 48 57
e 48 61
e 48 75
e 48 86
e 48 88
e 48 89
e 48 97
e 48 105
e 49 50
e 49 56
e 49 67
e 49 86
e 49 92
e 49 96
e 49 102
e 49 103
e 50 54
e 50 57
e 50 58
e 50 61
e 50 63
e 50 65
e 50 76
e 50 77
e 50 82
e 50 90
e 50 92
e 50 99
e 50 105
e 51 56
e 51 57
e 51 59
e 51 62
e 51 65
e 51 66
e 51 68
e 51 73
e 51 81
e 51 82
e 51 90
e 51 92
e 51 103
e 52 56
e 52 66
e 52 70
e 52 78
e 52 80
e 52 82
e 52 85
e 52 105
e 53 55
e 53 62
e 53 67
e 53 74
e 53 76
e 53 78
e 53 85
e 53 87
e 53 88
e 53 90
e 53 95
e 53 98
e 54 59
e 54 67
e 54 68
e 54 72
e 54 76
e 54 79
e 54 83
e 54 85
e 54 89
e 54 91
e 54 95
e 54 98
e 55 61
e 55 64
e 55 65
e 55 67
e 55 70
e 55 73
e 55 75
e 55 76
e 55 78
e 55 80
e 55 81
e 55 82
e 55 85
e 55 87
e 55 90
e 55 98
e 56 60
e 56 68
e 56 71
e 56 78
e 56 81
e 56 82
e 56 85
e 56 91
e 56 94
e 56 100
e 56 104
e 56 105
e 57 58
e 57 60
e 57 64
e 57 69
e 57 70
e 57 71
e 57 73
e 57 80
e 57 85
e 57 87
e 57 93
e 57 97
e 58 66
e 58 68
e 58 80
e 58 82
e 58 97
e 58 101
e 58 105
e 59 61
e 59 66
e 59 72
e 59 78
e 59 82
e 59 93
e 59 95
e 60 67
e 60 68
e 60 70
e 60 75
e 60 76
e 60 81
e 60 89
e 60 90
e 60 91
e 60 99
e 60 100
e 61 62
e 61 71
e 61 78
e 61 80
e 61 91
e 61 94
e 61 99
e 61 102
e 61 104
e 61 105
e 62 64
e 62 66
e 62 68
e 62 75
e 62 77
e 62 80
e 62 89
e 62 91
e 62 97
e 62 104
e 63 66
e 63 69
e 63 70
e 63 71
e 63 72
e 63 73
e 63 81
e 63 85
e 63 95
e 63 97
e 63 98
e 63 101
e 63 104
e 64 65
e 64 70
e 64 76
e 64 78
e 64 82
e 64 86
e 64 88
e 64 91
e 64 92
e 64 99
e 65 73
e 65 76
e 65 83
e 65 102
e 65 104
e 66 70
e 66 72
e 66 74
e 66 75
e 66 78
e 66 82
e 66 83
e 66 85
e 66 87
e 66 88
e 66 96
e 66 101
e 66 102
e 67 72
e 67 73
e 67 82
e 67 85
e 67 87
e 67 92
e 67 96
e 67 99
e 67 103
e 67 105
e 68 71
e 68 79
e 68 80
e 68 81
e 68 82
e 68 84
e 68 90
e 68 97
e 68 105
e 69 74
e 69 78
e 69 81
e 69 82
e 69 90
e 69 92
e 69 93
e 69 95
e 69 99
e 70 76
e 70 80
e 70 81
e 70 91
e 70 93
e 70 94
e 70 98
e 70 101
e 71 74
e 71 78
e 71 81
e 71 82
e 71 83
e 71 85
e 71 89
e 71 90
e 71 93
e 71 100
e 71 102
e 71 103
e 72 79
e 72 84
e 72 89
e 72 96
e 72 97
e 72 98
e 72 102
e 72 103
e 73 76
e 73 77
e 73 85
e 73 90
e 73 91
e 73 93
e 73 95
e 73 98
e 73 104
e 73 105
e 74 77
e 74 82
e 74 83
e 74 93
e 74 95
e 74 102
e 75 76
e 75 100
e 75 104
e 76 87
e 76 88
e 76 89
e 76 95
e 76 96
e 76 100
e 76 105
e 77 79
e 77 80
e 77 94
e 77 99
e 77 103
e 78 85
e 78 92
e 78 93
e 78 96
e 78 103
e 79 88
e 79 92
e 79 103
e 80 90
e 80 98
e 80 104
e 81 84
e 81 86
e 81 87
e 81 88
e 81 93
e 81 95
e 81 98
e 81 105
e 82 85
e 82 88
e 82 89
e 82 91
e 82 95
e 82 96
e 82 97
e 82 98
e 82 101
e 83 86
e 83 87
e 83 88
e 83 91
e 83 92
e 83 97
e 83 100
e 83 102
e 83 103
e 84 89
e 84 94
e 84 103
e 84 104
e 85 87
e 85 91
e 85 93
e 86 88
e 86 89
e 86 93
e 86 96
e 87 91
e 87 101
e 88 90
e 88 96
e 88 98
e 88 99
e 88 103
e 89 92
e 89 94
e 89 96
e 90 92
e 90 95
e 90 99
e 90 105
e 91 95
e 91 97
e 92 99
e 92 100
e 92 102
e 93 95
e 94 101
e 94 104
e 95 96
e 95 97
e 95 101
e 95 102
e 95 105
e 96 97
e 96 101
e 96 103
e 97 103
e 97 105
e 98 99
e 98 103
e 99 105
e 101 102
e 104 105
